presolving:
(round 1, fast)       3249 del vars, 9269 del conss, 0 add conss, 2192 chg bounds, 11674 chg sides, 9540 chg coeffs, 0 upgd conss, 0 impls, 2298 clqs
(round 2, fast)       3298 del vars, 10707 del conss, 0 add conss, 2194 chg bounds, 11685 chg sides, 9550 chg coeffs, 0 upgd conss, 0 impls, 2278 clqs
(round 3, fast)       3319 del vars, 10719 del conss, 0 add conss, 2194 chg bounds, 12683 chg sides, 10548 chg coeffs, 0 upgd conss, 0 impls, 2275 clqs
(round 4, exhaustive) 3319 del vars, 11017 del conss, 0 add conss, 2225 chg bounds, 13442 chg sides, 11307 chg coeffs, 0 upgd conss, 0 impls, 2275 clqs
(round 5, fast)       3321 del vars, 11019 del conss, 0 add conss, 2225 chg bounds, 13530 chg sides, 11395 chg coeffs, 0 upgd conss, 2 impls, 2273 clqs
(round 6, exhaustive) 3321 del vars, 11019 del conss, 0 add conss, 2241 chg bounds, 13545 chg sides, 11410 chg coeffs, 0 upgd conss, 2 impls, 2273 clqs
(round 7, exhaustive) 3321 del vars, 11019 del conss, 0 add conss, 2241 chg bounds, 13550 chg sides, 11415 chg coeffs, 6934 upgd conss, 2 impls, 2273 clqs
(round 8, medium)     3439 del vars, 11214 del conss, 0 add conss, 2241 chg bounds, 13550 chg sides, 11415 chg coeffs, 6934 upgd conss, 1781 impls, 2111 clqs
(round 9, fast)       3439 del vars, 11258 del conss, 0 add conss, 2241 chg bounds, 13550 chg sides, 11415 chg coeffs, 6934 upgd conss, 1781 impls, 2111 clqs
   (0.4s) probing: 1000/3444 (29.0%) - 0 fixings, 0 aggregations, 561 implications, 0 bound changes
   (0.4s) probing: 1001/3444 (29.1%) - 0 fixings, 0 aggregations, 561 implications, 0 bound changes
   (0.4s) probing aborted: 1000/1000 successive useless probings
   Deactivated symmetry handling methods, since SCIP was built without symmetry detector (SYM=none).
presolving (10 rounds: 10 fast, 5 medium, 4 exhaustive):
 3441 deleted vars, 11265 deleted constraints, 0 added constraints, 2241 tightened bounds, 0 added holes, 13550 changed sides, 11415 changed coefficients
 2168 implications, 2283 cliques
presolved problem has 5061 variables (3444 bin, 0 int, 0 impl, 1617 cont) and 13160 constraints
   1666 constraints of type <varbound>
   2109 constraints of type <setppc>
   6472 constraints of type <linear>
   2913 constraints of type <logicor>
transformed objective value is always integral (scale: 1)
Presolving Time: 0.43

 time | node  | left  |LP iter|LP it/n|mem/heur|mdpt |vars |cons |rows |cuts |sepa|confs|strbr|  dualbound   | primalbound  |  gap   | compl. 
  0.6s|     1 |     0 |   241 |     - |   134M |   0 |5061 |  13k|  13k|   0 |  0 |   4 |   0 | 2.275040e+01 |      --      |    Inf | unknown
r 0.6s|     1 |     0 |   241 |     - |shifting|   0 |5061 |  13k|  13k|   0 |  0 |   4 |   0 | 2.275040e+01 | 7.300000e+01 | 220.87%| unknown
  0.6s|     1 |     0 |   274 |     - |   136M |   0 |5061 |  13k|  13k|   3 |  1 |   4 |   0 | 2.500040e+01 | 7.300000e+01 | 192.00%| unknown
i 0.7s|     1 |     0 |   371 |     - |  oneopt|   0 |5061 |  13k|2830 |   3 |  1 |   4 |   0 | 2.500040e+01 | 3.800000e+01 |  52.00%| unknown
  0.7s|     1 |     0 |   371 |     - |   136M |   0 |5061 |  13k|2830 |   3 |  1 |   4 |   0 | 2.500040e+01 | 3.800000e+01 |  52.00%| unknown
  0.7s|     1 |     0 |   371 |     - |   136M |   0 |5061 |  13k|2296 |   3 |  1 |   4 |   0 | 2.500040e+01 | 3.800000e+01 |  52.00%| unknown
  0.7s|     1 |     0 |   375 |     - |   137M |   0 |5061 |  11k|1809 |   4 |  2 |   4 |   0 | 2.500040e+01 | 3.800000e+01 |  52.00%| unknown
  0.7s|     1 |     0 |   375 |     - |   137M |   0 |5061 |  11k|1803 |   4 |  3 |   4 |   0 | 2.500040e+01 | 3.800000e+01 |  52.00%| unknown
  0.7s|     1 |     0 |   392 |     - |   137M |   0 |5061 |  11k|1804 |   5 |  4 |   4 |   0 | 2.500041e+01 | 3.800000e+01 |  52.00%| unknown
  0.7s|     1 |     0 |   395 |     - |   137M |   0 |5061 |  11k|1803 |   6 |  5 |   4 |   0 | 2.500041e+01 | 3.800000e+01 |  52.00%| unknown
  0.7s|     1 |     0 |   422 |     - |   137M |   0 |5061 |  11k|1804 |   7 |  6 |   4 |   0 | 2.600036e+01 | 3.800000e+01 |  46.15%| unknown
  0.7s|     1 |     0 |   429 |     - |   137M |   0 |5061 |3942 |1804 |   7 |  8 |   4 |   0 | 2.600036e+01 | 3.800000e+01 |  46.15%| unknown
(run 1, node 1) restarting after 2915 global fixings of integer variables

(restart) converted 5 cuts from the global cut pool into linear constraints

presolving:
(round 1, fast)       4296 del vars, 2196 del conss, 0 add conss, 1 chg bounds, 13 chg sides, 10502 chg coeffs, 0 upgd conss, 2168 impls, 322 clqs
(round 2, fast)       4341 del vars, 2339 del conss, 0 add conss, 1 chg bounds, 13 chg sides, 10502 chg coeffs, 0 upgd conss, 2168 impls, 279 clqs
(round 3, fast)       4376 del vars, 2412 del conss, 0 add conss, 1 chg bounds, 13 chg sides, 10508 chg coeffs, 0 upgd conss, 2168 impls, 262 clqs
(round 4, fast)       4394 del vars, 2415 del conss, 0 add conss, 1 chg bounds, 13 chg sides, 10508 chg coeffs, 0 upgd conss, 2168 impls, 262 clqs
(round 5, medium)     4407 del vars, 2437 del conss, 0 add conss, 1 chg bounds, 13 chg sides, 10508 chg coeffs, 0 upgd conss, 2176 impls, 247 clqs
(round 6, fast)       4416 del vars, 2451 del conss, 0 add conss, 1 chg bounds, 13 chg sides, 10508 chg coeffs, 0 upgd conss, 2176 impls, 246 clqs
(round 7, fast)       4418 del vars, 2451 del conss, 0 add conss, 1 chg bounds, 13 chg sides, 10508 chg coeffs, 0 upgd conss, 2176 impls, 246 clqs
(round 8, exhaustive) 4418 del vars, 2451 del conss, 0 add conss, 1 chg bounds, 13 chg sides, 10508 chg coeffs, 13 upgd conss, 2176 impls, 246 clqs
(round 9, exhaustive) 4420 del vars, 2451 del conss, 0 add conss, 1 chg bounds, 13 chg sides, 10514 chg coeffs, 13 upgd conss, 2185 impls, 245 clqs
(round 10, fast)       4420 del vars, 2455 del conss, 0 add conss, 1 chg bounds, 13 chg sides, 10514 chg coeffs, 13 upgd conss, 2185 impls, 245 clqs
presolving (11 rounds: 11 fast, 4 medium, 3 exhaustive):
 4420 deleted vars, 2455 deleted constraints, 0 added constraints, 1 tightened bounds, 0 added holes, 13 changed sides, 10514 changed coefficients
 2185 implications, 245 cliques
presolved problem has 641 variables (440 bin, 0 int, 0 impl, 201 cont) and 1502 constraints
    167 constraints of type <varbound>
      2 constraints of type <knapsack>
    179 constraints of type <setppc>
    722 constraints of type <linear>
    432 constraints of type <logicor>
transformed objective value is always integral (scale: 1)
Presolving Time: 0.46

 time | node  | left  |LP iter|LP it/n|mem/heur|mdpt |vars |cons |rows |cuts |sepa|confs|strbr|  dualbound   | primalbound  |  gap   | compl. 
  0.9s|     1 |     0 |   936 |     - |   138M |   0 | 641 |1502 |1493 |   0 |  0 |  18 |   0 | 2.600036e+01 | 3.800000e+01 |  46.15%| unknown
  0.9s|     1 |     0 |   992 |     - |   139M |   0 | 641 |1502 |1498 |   5 |  1 |  18 |   0 | 2.600049e+01 | 3.800000e+01 |  46.15%| unknown
  0.9s|     1 |     0 |  1021 |     - |   139M |   0 | 641 |1502 |1500 |   7 |  2 |  18 |   0 | 2.600101e+01 | 3.800000e+01 |  46.15%| unknown
  0.9s|     1 |     0 |  1058 |     - |   139M |   0 | 641 |1502 |1502 |   9 |  3 |  18 |   0 | 2.609388e+01 | 3.800000e+01 |  45.63%| unknown
  0.9s|     1 |     0 |  1072 |     - |   139M |   0 | 641 |1502 |1503 |  10 |  4 |  18 |   0 | 2.700144e+01 | 3.800000e+01 |  40.73%| unknown
  0.9s|     1 |     0 |  1094 |     - |   139M |   0 | 641 |1502 |1504 |  11 |  5 |  18 |   0 | 2.700144e+01 | 3.800000e+01 |  40.73%| unknown
  1.0s|     1 |     0 |  1107 |     - |   139M |   0 | 641 |1502 |1505 |  12 |  6 |  18 |   0 | 2.700144e+01 | 3.800000e+01 |  40.73%| unknown
  1.0s|     1 |     0 |  1354 |     - |   139M |   0 | 641 |1486 |1505 |  12 |  8 |  24 |   2 | 3.233333e+01 | 3.800000e+01 |  17.53%| unknown
r 1.0s|     1 |     0 |  1354 |     - |shifting|   0 | 641 |1486 |1455 |  12 |  8 |  24 |   2 | 3.233333e+01 | 3.800000e+01 |  17.53%| unknown
  1.0s|     1 |     0 |  1354 |     - |   139M |   0 | 641 |1486 |1455 |  12 |  8 |  24 |   2 | 3.233333e+01 | 3.800000e+01 |  17.53%| unknown
  1.0s|     1 |     0 |  1379 |     - |   140M |   0 | 641 |1482 |1458 |  15 |  9 |  24 |   2 | 3.300000e+01 | 3.800000e+01 |  15.15%| unknown
  1.0s|     1 |     0 |  1414 |     - |   140M |   0 | 641 |1458 |1458 |  15 | 10 |  34 |  17 | 3.400000e+01 | 3.800000e+01 |  11.76%| unknown
  1.0s|     1 |     0 |  1414 |     - |   140M |   0 | 641 |1458 |1418 |  15 | 10 |  34 |  17 | 3.400000e+01 | 3.800000e+01 |  11.76%| unknown
  1.0s|     1 |     0 |  1480 |     - |   140M |   0 | 641 |1442 |1395 |  17 | 11 |  34 |  17 | 3.400000e+01 | 3.800000e+01 |  11.76%| unknown
  1.0s|     1 |     0 |  1496 |     - |   140M |   0 | 641 |1442 |1396 |  18 | 12 |  35 |  17 | 3.500000e+01 | 3.800000e+01 |   8.57%| unknown
 time | node  | left  |LP iter|LP it/n|mem/heur|mdpt |vars |cons |rows |cuts |sepa|confs|strbr|  dualbound   | primalbound  |  gap   | compl. 
  1.1s|     1 |     0 |  1502 |     - |   140M |   0 | 641 |1442 |1360 |  18 | 12 |  36 |  17 | 3.600000e+01 | 3.800000e+01 |   5.56%| unknown
  1.1s|     1 |     0 |  1502 |     - |   140M |   0 | 641 |1442 | 917 |  18 | 12 |  36 |  17 | 3.600000e+01 | 3.800000e+01 |   5.56%| unknown
  1.1s|     1 |     0 |  1503 |     - |   140M |   0 | 641 | 869 | 917 |  18 | 12 |  36 |  17 | 3.600000e+01 | 3.800000e+01 |   5.56%| unknown
  1.1s|     1 |     0 |  1542 |     - |   140M |   0 | 641 | 869 | 725 |  20 | 13 |  36 |  17 | 3.600000e+01 | 3.800000e+01 |   5.56%| unknown
  1.1s|     1 |     0 |  1542 |     - |   140M |   0 | 641 | 869 | 713 |  20 | 13 |  36 |  17 | 3.600000e+01 | 3.800000e+01 |   5.56%| unknown
(run 2, node 1) restarting after 195 global fixings of integer variables

(restart) converted 9 cuts from the global cut pool into linear constraints

presolving:
(round 1, fast)       277 del vars, 153 del conss, 0 add conss, 0 chg bounds, 7 chg sides, 561 chg coeffs, 0 upgd conss, 2192 impls, 144 clqs
(round 2, fast)       289 del vars, 165 del conss, 0 add conss, 0 chg bounds, 15 chg sides, 569 chg coeffs, 0 upgd conss, 2192 impls, 138 clqs
(round 3, fast)       289 del vars, 165 del conss, 0 add conss, 4 chg bounds, 15 chg sides, 569 chg coeffs, 0 upgd conss, 2192 impls, 138 clqs
(round 4, fast)       289 del vars, 201 del conss, 0 add conss, 4 chg bounds, 71 chg sides, 597 chg coeffs, 0 upgd conss, 2192 impls, 138 clqs
(round 5, fast)       289 del vars, 201 del conss, 0 add conss, 7 chg bounds, 71 chg sides, 597 chg coeffs, 0 upgd conss, 2192 impls, 138 clqs
(round 6, fast)       289 del vars, 208 del conss, 0 add conss, 7 chg bounds, 87 chg sides, 612 chg coeffs, 0 upgd conss, 2192 impls, 138 clqs
(round 7, exhaustive) 289 del vars, 208 del conss, 0 add conss, 8 chg bounds, 87 chg sides, 612 chg coeffs, 17 upgd conss, 2192 impls, 138 clqs
(round 8, fast)       289 del vars, 209 del conss, 0 add conss, 8 chg bounds, 87 chg sides, 612 chg coeffs, 17 upgd conss, 2200 impls, 138 clqs
(round 9, medium)     289 del vars, 212 del conss, 2 add conss, 8 chg bounds, 91 chg sides, 618 chg coeffs, 17 upgd conss, 2200 impls, 138 clqs
(round 10, fast)       289 del vars, 213 del conss, 3 add conss, 8 chg bounds, 91 chg sides, 660 chg coeffs, 17 upgd conss, 2200 impls, 138 clqs
(round 11, exhaustive) 289 del vars, 215 del conss, 3 add conss, 8 chg bounds, 91 chg sides, 669 chg coeffs, 17 upgd conss, 2200 impls, 138 clqs
(round 12, exhaustive) 291 del vars, 215 del conss, 3 add conss, 8 chg bounds, 91 chg sides, 669 chg coeffs, 17 upgd conss, 2200 impls, 138 clqs
(round 13, fast)       293 del vars, 219 del conss, 3 add conss, 8 chg bounds, 91 chg sides, 669 chg coeffs, 17 upgd conss, 2208 impls, 138 clqs
(round 14, exhaustive) 293 del vars, 219 del conss, 3 add conss, 8 chg bounds, 91 chg sides, 669 chg coeffs, 27 upgd conss, 2208 impls, 138 clqs
(round 15, exhaustive) 294 del vars, 219 del conss, 3 add conss, 8 chg bounds, 91 chg sides, 669 chg coeffs, 27 upgd conss, 2210 impls, 138 clqs
(round 16, fast)       301 del vars, 228 del conss, 3 add conss, 9 chg bounds, 92 chg sides, 670 chg coeffs, 27 upgd conss, 2210 impls, 138 clqs
(round 17, fast)       301 del vars, 228 del conss, 3 add conss, 10 chg bounds, 92 chg sides, 676 chg coeffs, 27 upgd conss, 2210 impls, 139 clqs
(round 18, fast)       301 del vars, 228 del conss, 3 add conss, 10 chg bounds, 100 chg sides, 690 chg coeffs, 27 upgd conss, 2210 impls, 139 clqs
(round 19, exhaustive) 310 del vars, 228 del conss, 3 add conss, 10 chg bounds, 100 chg sides, 690 chg coeffs, 27 upgd conss, 2210 impls, 138 clqs
(round 20, fast)       310 del vars, 234 del conss, 4 add conss, 10 chg bounds, 100 chg sides, 710 chg coeffs, 27 upgd conss, 2210 impls, 140 clqs
(round 21, medium)     310 del vars, 235 del conss, 6 add conss, 10 chg bounds, 128 chg sides, 740 chg coeffs, 27 upgd conss, 2210 impls, 140 clqs
(round 22, fast)       310 del vars, 236 del conss, 7 add conss, 10 chg bounds, 128 chg sides, 740 chg coeffs, 27 upgd conss, 2210 impls, 140 clqs
(round 23, exhaustive) 310 del vars, 237 del conss, 7 add conss, 10 chg bounds, 128 chg sides, 742 chg coeffs, 27 upgd conss, 2210 impls, 140 clqs
(round 24, exhaustive) 311 del vars, 237 del conss, 7 add conss, 10 chg bounds, 128 chg sides, 748 chg coeffs, 27 upgd conss, 2210 impls, 138 clqs
(round 25, fast)       312 del vars, 242 del conss, 8 add conss, 10 chg bounds, 128 chg sides, 748 chg coeffs, 27 upgd conss, 2210 impls, 138 clqs
(round 26, exhaustive) 312 del vars, 243 del conss, 8 add conss, 10 chg bounds, 128 chg sides, 748 chg coeffs, 27 upgd conss, 2210 impls, 138 clqs
presolving (27 rounds: 27 fast, 12 medium, 10 exhaustive):
 312 deleted vars, 243 deleted constraints, 8 added constraints, 10 tightened bounds, 0 added holes, 128 changed sides, 748 changed coefficients
 2210 implications, 138 cliques
presolved problem has 333 variables (223 bin, 0 int, 0 impl, 110 cont) and 633 constraints
     99 constraints of type <varbound>
      2 constraints of type <knapsack>
     42 constraints of type <setppc>
    269 constraints of type <linear>
    221 constraints of type <logicor>
transformed objective value is always integral (scale: 1)
Presolving Time: 0.47

 time | node  | left  |LP iter|LP it/n|mem/heur|mdpt |vars |cons |rows |cuts |sepa|confs|strbr|  dualbound   | primalbound  |  gap   | compl. 
p 1.1s|     1 |     0 |  1574 |     - | vbounds|   0 | 333 | 651 | 628 |   0 |  0 |  57 |  17 | 3.600000e+01 | 3.600000e+01 |   0.00%| unknown

SCIP Status        : problem is solved [optimal solution found]
Solving Time (sec) : 1.07
Solving Nodes      : 1 (total of 3 nodes in 3 runs)
Primal Bound       : +3.60000000000000e+01 (5 solutions)
Dual Bound         : +3.60000000000000e+01
Gap                : 0.00 %
Root classes: ['0', '1', '38', '39', '52', '54', '55', '56', '57', '58', '59', '60', '61', '62', '63', '64', '65', '66', '67', '68', '69', '70', '71', '72', '73', '74', '75', '76', '77', '78', '79', '80', '81']
Status: OPTIMAL
